rail_links1 = [|
            1,1,5,30|
            2,2,5,30|
            3,3,6,30|
            4,4,6,30|
            5,5,7,30|
            6,5,8,60|
            7,6,8,60|
            8,6,9,30|
            9,7,10,30|
            10,8,10,60|
            11,8,11,60|
            12,9,11,30|
            13,10,12,30|
            14,10,13,30|
            15,11,14,30|
            16,11,15,30|];

passenger_train_path = [|				1	,	5	,	9	,	13	|	2	,	6	,	10	,	14	|	3	,	7	,	11	,	14	|	4	,	8	,	12	,	16	|
				1	,	5	,	9	,	13	|	2	,	6	,	10	,	14	|	3	,	7	,	11	,	14	|	4	,	8	,	12	,	16	|
				1	,	5	,	9	,	13	|	2	,	6	,	10	,	14	|	3	,	7	,	11	,	14	|	4	,	8	,	12	,	16	|
				1	,	5	,	9	,	13	|	2	,	6	,	10	,	14	|	3	,	7	,	11	,	14	|	4	,	8	,	12	,	16	|
				1	,	5	,	9	,	13	|	2	,	6	,	10	,	14	|	3	,	7	,	11	,	14	|	4	,	8	,	12	,	16	|
				1	,	5	,	9	,	13	|	2	,	6	,	10	,	14	|	3	,	7	,	11	,	14	|	4	,	8	,	12	,	16	|
				1	,	5	,	9	,	13	|	2	,	6	,	10	,	14	|	3	,	7	,	11	,	14	|	4	,	8	,	12	,	16	|
				1	,	5	,	9	,	13	|	2	,	6	,	10	,	14	|	3	,	7	,	11	,	14	|	4	,	8	,	12	,	16	|
				1	,	5	,	9	,	13	|	2	,	6	,	10	,	14	|	3	,	7	,	11	,	14	|	4	,	8	,	12	,	16	|
				1	,	5	,	9	,	13	|	2	,	6	,	10	,	14	|	3	,	7	,	11	,	14	|	4	,	8	,	12	,	16	|
				1	,	5	,	9	,	13	|	2	,	6	,	10	,	14	|	3	,	7	,	11	,	14	|	4	,	8	,	12	,	16	|
				1	,	5	,	9	,	13	|	2	,	6	,	10	,	14	|	3	,	7	,	11	,	14	|	4	,	8	,	12	,	16	|
				1	,	5	,	9	,	13	|	2	,	6	,	10	,	14	|	3	,	7	,	11	,	14	|	4	,	8	,	12	,	16	|
				1	,	5	,	9	,	13	|	2	,	6	,	10	,	14	|	3	,	7	,	11	,	14	|	4	,	8	,	12	,	16	|
				1	,	5	,	9	,	13	|	2	,	6	,	10	,	14	|	3	,	7	,	11	,	14	|	4	,	8	,	12	,	16	|
				1	,	5	,	9	,	13	|	2	,	6	,	10	,	14	|	3	,	7	,	11	,	14	|	4	,	8	,	12	,	16	|
				1	,	5	,	9	,	13	|	2	,	6	,	10	,	14	|	3	,	7	,	11	,	14	|	4	,	8	,	12	,	16	|];
																																			
passenger_train_dtime =[|				300	,	330	,	360	,	390	|	310	,	340	,	400	,	460	|	300	,	330	,	390	,	450	|	310	,	340	,	370	,	400	|
				360	,	390	,	420	,	450	|	370	,	400	,	460	,	520	|	360	,	390	,	450	,	510	|	370	,	400	,	430	,	460	|
				420	,	450	,	480	,	510	|	430	,	460	,	520	,	580	|	420	,	450	,	510	,	570	|	430	,	460	,	490	,	520	|
				480	,	510	,	540	,	570	|	490	,	520	,	580	,	640	|	480	,	510	,	570	,	630	|	490	,	520	,	550	,	580	|
				540	,	570	,	600	,	630	|	550	,	580	,	640	,	700	|	540	,	570	,	630	,	690	|	550	,	580	,	610	,	640	|
				600	,	630	,	660	,	690	|	610	,	640	,	700	,	760	|	600	,	630	,	690	,	750	|	610	,	640	,	670	,	700	|
				660	,	690	,	720	,	750	|	670	,	700	,	760	,	820	|	660	,	690	,	750	,	810	|	670	,	700	,	730	,	760	|
				720	,	750	,	780	,	810	|	730	,	760	,	820	,	880	|	720	,	750	,	810	,	870	|	730	,	760	,	790	,	820	|
				780	,	810	,	840	,	870	|	790	,	820	,	880	,	940	|	780	,	810	,	870	,	930	|	790	,	820	,	850	,	880	|
				840	,	870	,	900	,	930	|	850	,	880	,	940	,	1000	|	840	,	870	,	930	,	990	|	850	,	880	,	910	,	940	|
				900	,	930	,	960	,	990	|	910	,	940	,	1000	,	1060	|	900	,	930	,	990	,	1050	|	910	,	940	,	970	,	1000	|
				960	,	990	,	1020	,	1050	|	970	,	1000	,	1060	,	1120	|	960	,	990	,	1050	,	1110	|	970	,	1000	,	1030	,	1060	|
				1020	,	1050	,	1080	,	1110	|	1030	,	1060	,	1120	,	1180	|	1020	,	1050	,	1110	,	1170	|	1030	,	1060	,	1090	,	1120	|
				1080	,	1110	,	1140	,	1170	|	1090	,	1120	,	1180	,	1240	|	1080	,	1110	,	1170	,	1230	|	1090	,	1120	,	1150	,	1180	|
				1140	,	1170	,	1200	,	1230	|	1150	,	1180	,	1240	,	1300	|	1140	,	1170	,	1230	,	1290	|	1150	,	1180	,	1210	,	1240	|
				1200	,	1230	,	1260	,	1290	|	1210	,	1240	,	1300	,	1360	|	1200	,	1230	,	1290	,	1350	|	1210	,	1240	,	1270	,	1300	|
				1260	,	1290	,	1320	,	1350	|	1270	,	1300	,	1360	,	1420	|	1260	,	1290	,	1350	,	1410	|	1270	,	1300	,	1330	,	1360	|];